p cnf 49 101
25 -14 12 -11 0
-25 14 0
-25 -12 0
-25 11 0
26 -20 18 -17 0
-26 20 0
-26 -18 0
-26 17 0
27 -8 7 -6 0
-27 8 0
-27 -7 0
-27 6 0
28 -1 0
-28 1 0
-2 25 26 27 28 0
2 -25 0
2 -26 0
2 -27 0
2 -28 0
29 -12 -11 0
-29 12 0
-29 11 0
30 -3 -2 0
-30 3 0
-30 2 0
31 -18 -17 0
-31 18 0
-31 17 0
32 -7 -6 0
-32 7 0
-32 6 0
-4 29 30 31 32 0
4 -29 0
4 -30 0
4 -31 0
4 -32 0
33 -16 13 -11 0
-33 16 0
-33 -13 0
-33 11 0
34 -22 19 -17 0
-34 22 0
-34 -19 0
-34 17 0
35 -5 0
-35 5 0
-6 33 34 35 0
6 -33 0
6 -34 0
6 -35 0
36 -8 0
-36 8 0
37 -7 0
-37 7 0
-9 36 37 0
9 -36 0
9 -37 0
38 -23 21 -17 0
-38 23 0
-38 -21 0
-38 17 0
39 -10 0
-39 10 0
-11 38 39 0
11 -38 0
11 -39 0
40 -12 0
-40 12 0
41 -14 0
-41 14 0
-13 40 41 0
13 -40 0
13 -41 0
42 -16 0
-42 16 0
43 -13 0
-43 13 0
-15 42 43 0
15 -42 0
15 -43 0
44 -18 0
-44 18 0
45 -20 0
-45 20 0
-19 44 45 0
19 -44 0
19 -45 0
46 -22 0
-46 22 0
47 -19 0
-47 19 0
-21 46 47 0
21 -46 0
21 -47 0
48 -23 0
-48 23 0
49 -21 0
-49 21 0
-24 48 49 0
24 -48 0
24 -49 0
c p weight 1 0.5 0
c p weight -1 0.5 0
c p weight 2 1.0 0
c p weight -2 1.0 0
c p weight 3 1.0 0
c p weight -3 0.0 0
c p weight 4 1.0 0
c p weight -4 0.0 0
c p weight 5 0.5 0
c p weight -5 0.5 0
c p weight 6 1.0 0
c p weight -6 1.0 0
c p weight 7 0.5 0
c p weight -7 0.5 0
c p weight 8 1.0 0
c p weight -8 0.0 0
c p weight 9 1.0 0
c p weight -9 1.0 0
c p weight 10 0.5 0
c p weight -10 0.5 0
c p weight 11 1.0 0
c p weight -11 1.0 0
c p weight 12 0.3333333333333333 0
c p weight -12 0.6666666666666667 0
c p weight 13 1.0 0
c p weight -13 1.0 0
c p weight 14 0.49999999999999994 0
c p weight -14 0.5 0
c p weight 15 1.0 0
c p weight -15 1.0 0
c p weight 16 0.9999999999999997 0
c p weight -16 3.3306690738754696e-16 0
c p weight 17 0.5 0
c p weight -17 0.5 0
c p weight 18 0.25 0
c p weight -18 0.75 0
c p weight 19 1.0 0
c p weight -19 1.0 0
c p weight 20 0.3333333333333333 0
c p weight -20 0.6666666666666667 0
c p weight 21 1.0 0
c p weight -21 1.0 0
c p weight 22 0.5 0
c p weight -22 0.5 0
c p weight 23 1.0 0
c p weight -23 0.0 0
c p weight 24 1.0 0
c p weight -24 1.0 0
c p weight 25 1.0 0
c p weight -25 1.0 0
c p weight 26 1.0 0
c p weight -26 1.0 0
c p weight 27 1.0 0
c p weight -27 1.0 0
c p weight 28 1.0 0
c p weight -28 1.0 0
c p weight 29 1.0 0
c p weight -29 1.0 0
c p weight 30 1.0 0
c p weight -30 1.0 0
c p weight 31 1.0 0
c p weight -31 1.0 0
c p weight 32 1.0 0
c p weight -32 1.0 0
c p weight 33 1.0 0
c p weight -33 1.0 0
c p weight 34 1.0 0
c p weight -34 1.0 0
c p weight 35 1.0 0
c p weight -35 1.0 0
c p weight 36 1.0 0
c p weight -36 1.0 0
c p weight 37 1.0 0
c p weight -37 1.0 0
c p weight 38 1.0 0
c p weight -38 1.0 0
c p weight 39 1.0 0
c p weight -39 1.0 0
c p weight 40 1.0 0
c p weight -40 1.0 0
c p weight 41 1.0 0
c p weight -41 1.0 0
c p weight 42 1.0 0
c p weight -42 1.0 0
c p weight 43 1.0 0
c p weight -43 1.0 0
c p weight 44 1.0 0
c p weight -44 1.0 0
c p weight 45 1.0 0
c p weight -45 1.0 0
c p weight 46 1.0 0
c p weight -46 1.0 0
c p weight 47 1.0 0
c p weight -47 1.0 0
c p weight 48 1.0 0
c p weight -48 1.0 0
c p weight 49 1.0 0
c p weight -49 1.0 0
c p semirings aspmc.semirings.probabilistic 0
c p quantify 1 2 3 4 5 6 7 8 9 10 11 12 13 14 15 16 17 18 19 20 21 22 23 24 25 26 27 28 29 30 31 32 33 34 35 36 37 38 39 40 41 42 43 44 45 46 47 48 49 0
c p auxilliary 2 6 9 11 13 15 19 21 24 25 26 27 28 29 30 31 32 33 34 35 36 37 38 39 40 41 42 43 44 45 46 47 48 49 0
